NAME: tsp_406
COMMENT: Random TSP instance
TYPE: TSP
DIMENSION: 50
EDGE_WEIGHT_TYPE: EUC_2D
NODE_COORD_SECTION
1 183 235
2 623 654
3 961 80
4 164 122
5 656 323
6 995 106
7 747 159
8 635 548
9 130 840
10 142 303
11 398 313
12 574 777
13 178 130
14 488 327
15 174 672
16 839 139
17 196 156
18 154 665
19 428 709
20 901 33
21 51 603
22 363 223
23 290 432
24 499 532
25 379 297
26 894 636
27 300 776
28 960 49
29 361 816
30 624 877
31 697 479
32 402 875
33 369 984
34 285 31
35 514 662
36 59 844
37 994 29
38 5 727
39 94 32
40 143 366
41 49 243
42 647 856
43 509 174
44 74 868
45 354 763
46 554 485
47 511 478
48 729 898
49 726 808
50 466 261
